(set-option :produce-models true); benchmark generated from python API
(set-info :status unknown)
(declare-fun l_1_0_9 () Real)
(declare-fun l_1_0_8 () Real)
(declare-fun l_1_0_7 () Real)
(declare-fun l_1_0_6 () Real)
(declare-fun l_1_0_5 () Real)
(declare-fun l_1_0_4 () Real)
(declare-fun l_1_0_3 () Real)
(declare-fun l_1_0_2 () Real)
(declare-fun l_1_0_1 () Real)
(declare-fun _a_0_ () Real)
(declare-fun l_1_0_10 () Real)
(declare-fun _a_1_ () Real)
(declare-fun l_1_0_12 () Real)
(declare-fun _a_2_ () Real)
(declare-fun l_1_0_18 () Real)
(declare-fun l_1_0_17 () Real)
(declare-fun l_1_0_16 () Real)
(declare-fun l_1_0_15 () Real)
(declare-fun _a_3_ () Real)
(declare-fun l_1_0_14 () Real)
(declare-fun l_1_0_13 () Real)
(declare-fun _a_4_ () Real)
(declare-fun _a_5_ () Real)
(declare-fun l_1_0_11 () Real)
(declare-fun _a_6_ () Real)
(declare-fun _a_7_ () Real)
(declare-fun _a_8_ () Real)
(declare-fun _a_9_ () Real)
(declare-fun l_1_1_8 () Real)
(declare-fun l_1_1_5 () Real)
(declare-fun l_1_1_4 () Real)
(declare-fun l_1_1_2 () Real)
(declare-fun l_1_1_15 () Real)
(declare-fun l_1_1_14 () Real)
(declare-fun l_1_1_13 () Real)
(declare-fun l_1_1_12 () Real)
(declare-fun l_1_1_11 () Real)
(declare-fun l_1_1_1 () Real)
(declare-fun l_1_1_9 () Real)
(declare-fun l_1_1_7 () Real)
(declare-fun l_1_1_6 () Real)
(declare-fun l_1_1_3 () Real)
(declare-fun l_1_1_10 () Real)
(declare-fun l_1_1_20 () Real)
(declare-fun l_1_1_19 () Real)
(declare-fun l_1_1_18 () Real)
(declare-fun l_1_1_16 () Real)
(declare-fun l_1_1_24 () Real)
(declare-fun l_1_1_23 () Real)
(declare-fun l_1_1_22 () Real)
(declare-fun l_1_1_21 () Real)
(declare-fun l_1_1_17 () Real)
(declare-fun l_1_2_9 () Real)
(declare-fun l_1_2_8 () Real)
(declare-fun l_1_2_6 () Real)
(declare-fun l_1_2_5 () Real)
(declare-fun l_1_2_4 () Real)
(declare-fun l_1_2_15 () Real)
(declare-fun l_1_2_14 () Real)
(declare-fun l_1_2_12 () Real)
(declare-fun l_1_2_10 () Real)
(declare-fun l_1_2_1 () Real)
(declare-fun l_1_2_7 () Real)
(declare-fun l_1_2_3 () Real)
(declare-fun l_1_2_2 () Real)
(declare-fun l_1_2_13 () Real)
(declare-fun l_1_2_11 () Real)
(declare-fun l_1_2_25 () Real)
(declare-fun l_1_2_16 () Real)
(declare-fun l_1_2_21 () Real)
(declare-fun l_1_2_18 () Real)
(declare-fun l_1_2_17 () Real)
(declare-fun l_1_2_22 () Real)
(declare-fun l_1_2_24 () Real)
(declare-fun l_1_2_23 () Real)
(declare-fun l_1_2_19 () Real)
(declare-fun l_1_2_20 () Real)
(declare-fun l_1_2_29 () Real)
(declare-fun l_1_2_28 () Real)
(declare-fun l_1_2_27 () Real)
(declare-fun l_1_2_26 () Real)
(assert
 (let ((?x85 (* l_1_0_9 l_1_0_9)))
 (let ((?x5014 (* (/ 71.0 4.0) l_1_0_5)))
 (let ((?x97 (* (/ 71.0 4.0) l_1_0_3)))
 (let ((?x95 (- (+ (- (+ _a_0_ (* (/ 71.0 4.0) l_1_0_1)) (* (/ 5041.0 16.0) l_1_0_2)) ?x97) l_1_0_4)))
 (= (- (- (- (- (+ ?x95 ?x5014) l_1_0_6) l_1_0_7) l_1_0_8) ?x85) 0.0))))))
(assert
 (let ((?x3281 (* 6.0 l_1_0_5)))
 (let ((?x3343 (* 6.0 l_1_0_3)))
 (let ((?x3279 (* 213.0 l_1_0_2)))
 (let ((?x3341 (- (- _a_1_ (* 6.0 l_1_0_1)) (* (* 2.0 l_1_0_10) l_1_0_9))))
 (= (- (- (+ ?x3341 ?x3279) ?x3343) ?x3281) 0.0))))))
(assert
 (= (- _a_2_ (* (* 2.0 l_1_0_12) l_1_0_9)) 0.0))
(assert
 (let ((?x68 (* (/ 143.0 2.0) l_1_0_2)))
 (let ((?x2116 (* l_1_0_18 l_1_0_18)))
 (let ((?x4938 (* l_1_0_17 l_1_0_17)))
 (let ((?x2986 (* l_1_0_16 l_1_0_16)))
 (let ((?x2119 (- (- (- (- (+ _a_3_ l_1_0_1) (* l_1_0_15 l_1_0_15)) ?x2986) ?x4938) ?x2116)))
 (= (+ (+ (- ?x2119 ?x68) l_1_0_3) l_1_0_5) 0.0)))))))
(assert
 (let ((?x3119 (- (- _a_4_ (* (* 2.0 l_1_0_12) l_1_0_15)) (* (* 2.0 l_1_0_13) l_1_0_16))))
 (= (- ?x3119 (* (* 2.0 l_1_0_14) l_1_0_17)) 0.0)))
(assert
 (let ((?x3281 (* 6.0 l_1_0_5)))
 (let ((?x3343 (* 6.0 l_1_0_3)))
 (let ((?x3279 (* 213.0 l_1_0_2)))
 (let ((?x1936 (- (- _a_5_ (* 6.0 l_1_0_1)) (* (* 2.0 l_1_0_15) l_1_0_9))))
 (= (- (- (+ ?x1936 ?x3279) ?x3343) ?x3281) 0.0))))))
(assert
 (let ((?x68 (* (/ 143.0 2.0) l_1_0_2)))
 (let ((?x4790 (* l_1_0_11 l_1_0_11)))
 (let ((?x4793 (+ (- (- (- (+ _a_6_ l_1_0_1) (* l_1_0_10 l_1_0_10)) ?x4790) ?x68) l_1_0_3)))
 (= (+ ?x4793 l_1_0_5) 0.0)))))
(assert
 (let ((?x1886 (- (- _a_7_ (* (* 2.0 l_1_0_10) l_1_0_12)) (* (* 2.0 l_1_0_11) l_1_0_13))))
 (= ?x1886 0.0)))
(assert
 (let ((?x1871 (* l_1_0_14 l_1_0_14)))
 (let ((?x1870 (* l_1_0_13 l_1_0_13)))
 (let ((?x4689 (- (- (- (- (+ _a_8_ l_1_0_1) (* l_1_0_12 l_1_0_12)) ?x1870) ?x1871) (* (/ 71.0 2.0) l_1_0_2))))
 (= (+ (+ ?x4689 l_1_0_3) l_1_0_5) 0.0)))))
(assert
 (let ((?x4649 (- (- _a_9_ (* (* 2.0 l_1_0_10) l_1_0_15)) (* (* 2.0 l_1_0_11) l_1_0_16))))
 (= (- ?x4649 (* 72.0 l_1_0_2)) 0.0)))
(assert
 (= (- l_1_0_2) 0.0))
(assert
 (= (* 12.0 l_1_0_2) 0.0))
(assert
 (= (* (- 2.0) l_1_0_2) 0.0))
(assert
 (= (* (- 2.0) l_1_0_2) 0.0))
(assert
 (= (* 12.0 l_1_0_2) 0.0))
(assert
 (= (* 12.0 l_1_0_2) 0.0))
(assert
 (= (* 12.0 l_1_0_2) 0.0))
(assert
 (= (- l_1_0_2) 0.0))
(assert
 (= (* (- 2.0) l_1_0_2) 0.0))
(assert
 (= (* 12.0 l_1_0_2) 0.0))
(assert
 (= (- l_1_0_2) 0.0))
(assert
 (= (* 12.0 l_1_0_2) 0.0))
(assert
 (>= l_1_0_1 0.0))
(assert
 (>= l_1_0_2 0.0))
(assert
 (>= l_1_0_3 0.0))
(assert
 (>= l_1_0_4 0.0))
(assert
 (>= l_1_0_5 0.0))
(assert
 (>= l_1_0_6 0.0))
(assert
 (>= l_1_0_7 0.0))
(assert
 (>= l_1_0_8 0.0))
(assert
 (>= l_1_0_9 0.0))
(assert
 (>= l_1_0_11 0.0))
(assert
 (>= l_1_0_14 0.0))
(assert
 (>= l_1_0_18 0.0))
(assert
 (let ((?x4407 (* 16.0 l_1_1_8)))
 (let ((?x4404 (* 16.0 l_1_1_4)))
 (let ((?x4403 (* 256.0 l_1_1_2)))
 (let ((?x1479 (* l_1_1_15 l_1_1_15)))
 (let ((?x4460 (* 16.0 l_1_1_1)))
 (let ((?x4448 (* _a_0_ l_1_1_7)))
 (let ((?x4447 (- (- (* (- _a_0_) l_1_1_10) (* _a_0_ l_1_1_3)) (* (* 16.0 _a_0_) l_1_1_6))))
 (let ((?x1478 (- (- (- (- ?x4447 ?x4448) (* (* 16.0 _a_0_) l_1_1_9)) ?x4460) (* (* l_1_1_11 _a_0_) _a_0_))))
 (let ((?x4405 (- (- (- (- (- (- ?x1478 l_1_1_12) l_1_1_13) l_1_1_14) ?x1479) ?x4403) ?x4404)))
 (= (- (- (- ?x4405 l_1_1_5) ?x4407) 1.0) 0.0)))))))))))
(assert
 (let ((?x4150 (* l_1_1_20 l_1_1_20)))
 (let ((?x1499 (* 32.0 l_1_1_2)))
 (let ((?x1218 (* l_1_1_19 l_1_1_19)))
 (let ((?x4189 (* l_1_1_18 l_1_1_18)))
 (let ((?x4185 (* _a_8_ l_1_1_7)))
 (let ((?x4186 (- (- (- (* (- _a_8_) l_1_1_10) (* _a_8_ l_1_1_3)) ?x4185) l_1_1_1)))
 (let ((?x4188 (- ?x4186 (* l_1_1_11 (+ (* (* 2.0 _a_0_) _a_8_) (* _a_2_ _a_2_))))))
 (let ((?x1206 (- (- (- (- (- (- ?x4188 ?x4189) ?x1218) ?x1499) ?x4150) l_1_1_4) (* l_1_1_6 (+ _a_0_ (* 16.0 _a_8_))))))
 (let ((?x1556 (- (- (- ?x1206 l_1_1_8) (* l_1_1_9 (+ _a_0_ (* 16.0 _a_8_)))) (/ 1.0 2.0))))
 (= ?x1556 0.0)))))))))))
(assert
 (let ((?x3869 (* 6.0 l_1_1_8)))
 (let ((?x3862 (* 6.0 l_1_1_4)))
 (let ((?x3860 (* 192.0 l_1_1_2)))
 (let ((?x3801 (* 6.0 l_1_1_1)))
 (let ((?x3912 (* _a_1_ l_1_1_7)))
 (let ((?x3752 (* _a_1_ l_1_1_3)))
 (let ((?x3909 (* _a_1_ l_1_1_10)))
 (let ((?x3755 (- (- (- (* (* (* (- 2.0) _a_0_) _a_1_) l_1_1_11) ?x3909) ?x3752) ?x3912)))
 (let ((?x3863 (+ (+ (- (+ ?x3755 ?x3801) (* (* 2.0 l_1_1_15) l_1_1_16)) ?x3860) ?x3862)))
 (let ((?x3756 (+ (- ?x3863 (* l_1_1_6 (+ (* (- 6.0) _a_0_) (* 16.0 _a_1_)))) ?x3869)))
 (let ((?x3871 (+ (- ?x3756 (* l_1_1_9 (+ (* (- 6.0) _a_0_) (* 16.0 _a_1_)))) 1.0)))
 (= ?x3871 0.0)))))))))))))
(assert
 (let ((?x3050 (* l_1_1_24 l_1_1_24)))
 (let ((?x3524 (* l_1_1_23 l_1_1_23)))
 (let ((?x3522 (* l_1_1_22 l_1_1_22)))
 (let ((?x3520 (* l_1_1_21 l_1_1_21)))
 (let ((?x3518 (* 68.0 l_1_1_2)))
 (let ((?x3591 (* _a_3_ l_1_1_7)))
 (let ((?x3597 (- (- (- (* (- _a_3_) l_1_1_10) (* _a_3_ l_1_1_3)) ?x3591) l_1_1_1)))
 (let ((?x3037 (- ?x3597 (* l_1_1_11 (+ (* (* 2.0 _a_0_) _a_3_) (* _a_5_ _a_5_))))))
 (let ((?x3532 (- (- (- (- (- (- (- ?x3037 ?x3518) ?x3520) ?x3522) ?x3524) ?x3050) l_1_1_4) (* l_1_1_6 (- (+ _a_0_ (* 16.0 _a_3_)) (* 6.0 _a_5_))))))
 (let ((?x98 (- (- ?x3532 l_1_1_8) (* l_1_1_9 (- (+ _a_0_ (* 16.0 _a_3_)) (* 6.0 _a_5_))))))
 (= ?x98 0.0))))))))))))
(assert
 (let ((?x3869 (* 6.0 l_1_1_8)))
 (let ((?x3862 (* 6.0 l_1_1_4)))
 (let ((?x3860 (* 192.0 l_1_1_2)))
 (let ((?x3801 (* 6.0 l_1_1_1)))
 (let ((?x3224 (* _a_5_ l_1_1_7)))
 (let ((?x3301 (* _a_5_ l_1_1_3)))
 (let ((?x3299 (* _a_5_ l_1_1_10)))
 (let ((?x3226 (- (- (- (* (* (* (- 2.0) _a_0_) _a_5_) l_1_1_11) ?x3299) ?x3301) ?x3224)))
 (let ((?x3233 (+ (+ (- (+ ?x3226 ?x3801) (* (* 2.0 l_1_1_15) l_1_1_21)) ?x3860) ?x3862)))
 (let ((?x3240 (+ (- ?x3233 (* l_1_1_6 (+ (* (- 6.0) _a_0_) (* 16.0 _a_5_)))) ?x3869)))
 (= (- ?x3240 (* l_1_1_9 (+ (* (- 6.0) _a_0_) (* 16.0 _a_5_)))) 0.0))))))))))))
(assert
 (let ((?x3518 (* 68.0 l_1_1_2)))
 (let ((?x3059 (* l_1_1_17 l_1_1_17)))
 (let ((?x3057 (* l_1_1_16 l_1_1_16)))
 (let ((?x2821 (* _a_6_ l_1_1_7)))
 (let ((?x3051 (- (- (- (* (- _a_6_) l_1_1_10) (* _a_6_ l_1_1_3)) ?x2821) l_1_1_1)))
 (let ((?x3056 (- ?x3051 (* l_1_1_11 (+ (* (* 2.0 _a_0_) _a_6_) (* _a_1_ _a_1_))))))
 (let ((?x2970 (- (- (- (- (- ?x3056 ?x3057) ?x3059) ?x3518) l_1_1_4) (* l_1_1_6 (+ (- _a_0_ (* 6.0 _a_1_)) (* 16.0 _a_6_))))))
 (let ((?x2973 (- (- ?x2970 l_1_1_8) (* l_1_1_9 (+ (- _a_0_ (* 6.0 _a_1_)) (* 16.0 _a_6_))))))
 (= ?x2973 0.0))))))))))
(assert
 (let ((?x2744 (- (- (* (- _a_3_) l_1_1_6) (* _a_3_ l_1_1_9)) (* (* l_1_1_11 _a_3_) _a_3_))))
 (= (- ?x2744 l_1_1_2) 0.0)))
(assert
 (let ((?x2710 (* 12.0 l_1_1_2)))
 (let ((?x2717 (- (+ (* (* (* (- 2.0) _a_3_) _a_5_) l_1_1_11) ?x2710) (* l_1_1_6 (+ (* (- 6.0) _a_3_) _a_5_)))))
 (= (- ?x2717 (* l_1_1_9 (+ (* (- 6.0) _a_3_) _a_5_))) 0.0))))
(assert
 (let ((?x737 (* 2.0 l_1_1_2)))
 (let ((?x735 (* _a_4_ _a_4_)))
 (let ((?x39 (+ (* (* 2.0 _a_3_) _a_8_) ?x735)))
 (let ((?x35 (- l_1_1_11)))
 (let ((?x2630 (- (- (- (* ?x35 ?x39) ?x737) (* l_1_1_6 (+ _a_3_ _a_8_))) (* l_1_1_9 (+ _a_3_ _a_8_)))))
 (= ?x2630 0.0)))))))
(assert
 (let ((?x737 (* 2.0 l_1_1_2)))
 (let ((?x963 (* _a_9_ _a_9_)))
 (let ((?x2536 (+ (* (* 2.0 _a_3_) _a_6_) ?x963)))
 (let ((?x35 (- l_1_1_11)))
 (let ((?x41 (- (- (- (* ?x35 ?x2536) ?x737) (* l_1_1_6 (+ _a_3_ _a_6_))) (* l_1_1_9 (+ _a_3_ _a_6_)))))
 (= ?x41 0.0)))))))
(assert
 (let ((?x2710 (* 12.0 l_1_1_2)))
 (let ((?x1148 (+ (* (* 2.0 _a_1_) _a_3_) (* (* 2.0 _a_5_) _a_9_))))
 (let ((?x35 (- l_1_1_11)))
 (let ((?x2415 (- (+ (* ?x35 ?x1148) ?x2710) (* l_1_1_6 (- (- _a_1_ (* 6.0 _a_3_)) (* 6.0 _a_9_))))))
 (let ((?x2182 (- ?x2415 (* l_1_1_9 (- (- _a_1_ (* 6.0 _a_3_)) (* 6.0 _a_9_))))))
 (= ?x2182 0.0)))))))
(assert
 (let ((?x2710 (* 12.0 l_1_1_2)))
 (let ((?x2097 (+ (* (* 2.0 _a_2_) _a_4_) (* (* 2.0 _a_5_) _a_8_))))
 (let ((?x35 (- l_1_1_11)))
 (let ((?x2103 (- (+ (* ?x35 ?x2097) ?x2710) (* l_1_1_6 (- _a_5_ (* 6.0 _a_8_))))))
 (= (- ?x2103 (* l_1_1_9 (- _a_5_ (* 6.0 _a_8_)))) 0.0))))))
(assert
 (let ((?x2710 (* 12.0 l_1_1_2)))
 (let ((?x1863 (+ (* (* 2.0 _a_1_) _a_9_) (* (* 2.0 _a_5_) _a_6_))))
 (let ((?x35 (- l_1_1_11)))
 (let ((?x1794 (- (+ (* ?x35 ?x1863) ?x2710) (* l_1_1_6 (- (- _a_5_ (* 6.0 _a_6_)) (* 6.0 _a_9_))))))
 (let ((?x1795 (- ?x1794 (* l_1_1_9 (- (- _a_5_ (* 6.0 _a_6_)) (* 6.0 _a_9_))))))
 (= ?x1795 0.0)))))))
(assert
 (let ((?x1561 (* 16.0 _a_9_)))
 (let ((?x1385 (+ (- (* (- 6.0) _a_1_) (* 6.0 _a_5_)) ?x1561)))
 (let ((?x1558 (* 72.0 l_1_1_2)))
 (let ((?x1657 (+ (* (* 2.0 _a_0_) _a_9_) (* (* 2.0 _a_1_) _a_5_))))
 (let ((?x1448 (* _a_9_ l_1_1_7)))
 (let ((?x1661 (- (- (- (* (- _a_9_) l_1_1_10) (* _a_9_ l_1_1_3)) ?x1448) (* l_1_1_11 ?x1657))))
 (let ((?x1555 (- (- ?x1661 (* (* 2.0 l_1_1_16) l_1_1_21)) (* (* 2.0 l_1_1_17) l_1_1_22))))
 (= (- (- (- ?x1555 ?x1558) (* l_1_1_6 ?x1385)) (* l_1_1_9 ?x1385)) 0.0)))))))))
(assert
 (let ((?x1276 (- (- (* (- _a_8_) l_1_1_6) (* _a_8_ l_1_1_9)) (* (* l_1_1_11 _a_8_) _a_8_))))
 (= (- ?x1276 l_1_1_2) 0.0)))
(assert
 (let ((?x737 (* 2.0 l_1_1_2)))
 (let ((?x1157 (* _a_7_ _a_7_)))
 (let ((?x1158 (+ (* (* 2.0 _a_6_) _a_8_) ?x1157)))
 (let ((?x35 (- l_1_1_11)))
 (let ((?x1164 (- (- (- (* ?x35 ?x1158) ?x737) (* l_1_1_6 (+ _a_6_ _a_8_))) (* l_1_1_9 (+ _a_6_ _a_8_)))))
 (= ?x1164 0.0)))))))
(assert
 (let ((?x2710 (* 12.0 l_1_1_2)))
 (let ((?x1079 (+ (* (* 2.0 _a_1_) _a_8_) (* (* 2.0 _a_2_) _a_7_))))
 (let ((?x35 (- l_1_1_11)))
 (let ((?x1002 (- (+ (* ?x35 ?x1079) ?x2710) (* l_1_1_6 (- _a_1_ (* 6.0 _a_8_))))))
 (= (- ?x1002 (* l_1_1_9 (- _a_1_ (* 6.0 _a_8_)))) 0.0))))))
(assert
 (let ((?x933 (- (- (* (- _a_6_) l_1_1_6) (* _a_6_ l_1_1_9)) (* (* l_1_1_11 _a_6_) _a_6_))))
 (= (- ?x933 l_1_1_2) 0.0)))
(assert
 (let ((?x2710 (* 12.0 l_1_1_2)))
 (let ((?x830 (- (+ (* (* (* (- 2.0) _a_1_) _a_6_) l_1_1_11) ?x2710) (* l_1_1_6 (- _a_1_ (* 6.0 _a_6_))))))
 (= (- ?x830 (* l_1_1_9 (- _a_1_ (* 6.0 _a_6_)))) 0.0))))
(assert
 (let ((?x751 (* _a_2_ l_1_1_7)))
 (let ((?x746 (* _a_2_ l_1_1_3)))
 (let ((?x744 (* _a_2_ l_1_1_10)))
 (let ((?x750 (- (- (- (* (* (* (- 2.0) _a_0_) _a_2_) l_1_1_11) ?x744) ?x746) (* (* 16.0 _a_2_) l_1_1_6))))
 (let ((?x756 (- (- (- ?x750 ?x751) (* (* 16.0 _a_2_) l_1_1_9)) (* (* 2.0 l_1_1_15) l_1_1_18))))
 (= ?x756 0.0)))))))
(assert
 (let ((?x22 (+ (* (* 2.0 _a_0_) _a_4_) (* (* 2.0 _a_2_) _a_5_))))
 (let ((?x21 (* _a_4_ l_1_1_7)))
 (let ((?x564 (- (- (- (* (- _a_4_) l_1_1_10) (* _a_4_ l_1_1_3)) ?x21) (* l_1_1_11 ?x22))))
 (let ((?x16 (- (- ?x564 (* (* 2.0 l_1_1_18) l_1_1_21)) (* (* 2.0 l_1_1_19) l_1_1_22))))
 (let ((?x536 (- (- ?x16 (* (* 2.0 l_1_1_20) l_1_1_23)) (* l_1_1_6 (+ (* (- 6.0) _a_2_) (* 16.0 _a_4_))))))
 (= (- ?x536 (* l_1_1_9 (+ (* (- 6.0) _a_2_) (* 16.0 _a_4_)))) 0.0)))))))
(assert
 (let ((?x485 (+ (* (* 2.0 _a_0_) _a_7_) (* (* 2.0 _a_1_) _a_2_))))
 (let ((?x444 (* _a_7_ l_1_1_7)))
 (let ((?x489 (- (- (- (* (- _a_7_) l_1_1_10) (* _a_7_ l_1_1_3)) ?x444) (* l_1_1_11 ?x485))))
 (let ((?x439 (- (- ?x489 (* (* 2.0 l_1_1_16) l_1_1_18)) (* (* 2.0 l_1_1_17) l_1_1_19))))
 (let ((?x393 (- (- ?x439 (* l_1_1_6 (+ (* (- 6.0) _a_2_) (* 16.0 _a_7_)))) (* l_1_1_9 (+ (* (- 6.0) _a_2_) (* 16.0 _a_7_))))))
 (= ?x393 0.0)))))))
(assert
 (let ((?x244 (+ (* (* 2.0 _a_2_) _a_3_) (* (* 2.0 _a_4_) _a_5_))))
 (let ((?x35 (- l_1_1_11)))
 (let ((?x251 (- (- (* ?x35 ?x244) (* l_1_1_6 (- _a_2_ (* 6.0 _a_4_)))) (* l_1_1_9 (- _a_2_ (* 6.0 _a_4_))))))
 (= ?x251 0.0)))))
(assert
 (let ((?x556 (* _a_4_ l_1_1_9)))
 (let ((?x432 (* _a_4_ l_1_1_6)))
 (= (- (- (* (* (* (- 2.0) _a_3_) _a_4_) l_1_1_11) ?x432) ?x556) 0.0))))
(assert
 (let ((?x3832 (+ (* (* 2.0 _a_3_) _a_7_) (* (* 2.0 _a_4_) _a_9_))))
 (let ((?x3303 (- (- (* (- _a_7_) l_1_1_6) (* _a_7_ l_1_1_9)) (* l_1_1_11 ?x3832))))
 (= ?x3303 0.0))))
(assert
 (let ((?x1311 (* _a_9_ l_1_1_9)))
 (let ((?x2262 (* _a_9_ l_1_1_6)))
 (= (- (- (* (* (* (- 2.0) _a_3_) _a_9_) l_1_1_11) ?x2262) ?x1311) 0.0))))
(assert
 (let ((?x3774 (+ (+ (* (* 2.0 _a_1_) _a_4_) (* (* 2.0 _a_2_) _a_9_)) (* (* 2.0 _a_5_) _a_7_))))
 (let ((?x35 (- l_1_1_11)))
 (let ((?x3063 (- (* ?x35 ?x3774) (* l_1_1_6 (- (* (- 6.0) _a_4_) (* 6.0 _a_7_))))))
 (= (- ?x3063 (* l_1_1_9 (- (* (- 6.0) _a_4_) (* 6.0 _a_7_)))) 0.0)))))
(assert
 (let ((?x716 (* _a_2_ l_1_1_9)))
 (let ((?x766 (* _a_2_ l_1_1_6)))
 (= (- (- (* (* (* (- 2.0) _a_2_) _a_8_) l_1_1_11) ?x766) ?x716) 0.0))))
(assert
 (let ((?x556 (* _a_4_ l_1_1_9)))
 (let ((?x432 (* _a_4_ l_1_1_6)))
 (= (- (- (* (* (* (- 2.0) _a_4_) _a_8_) l_1_1_11) ?x432) ?x556) 0.0))))
(assert
 (let ((?x288 (* _a_7_ l_1_1_9)))
 (let ((?x306 (* _a_7_ l_1_1_6)))
 (= (- (- (* (* (* (- 2.0) _a_7_) _a_8_) l_1_1_11) ?x306) ?x288) 0.0))))
(assert
 (let ((?x1191 (+ (* (* 2.0 _a_4_) _a_7_) (* (* 2.0 _a_8_) _a_9_))))
 (let ((?x4017 (- (- (* (- _a_9_) l_1_1_6) (* _a_9_ l_1_1_9)) (* l_1_1_11 ?x1191))))
 (= ?x4017 0.0))))
(assert
 (let ((?x4220 (+ (* (* 2.0 _a_1_) _a_7_) (* (* 2.0 _a_2_) _a_6_))))
 (let ((?x35 (- l_1_1_11)))
 (let ((?x3980 (- (- (* ?x35 ?x4220) (* l_1_1_6 (- _a_2_ (* 6.0 _a_7_)))) (* l_1_1_9 (- _a_2_ (* 6.0 _a_7_))))))
 (= ?x3980 0.0)))))
(assert
 (let ((?x3963 (+ (* (* 2.0 _a_4_) _a_6_) (* (* 2.0 _a_7_) _a_9_))))
 (let ((?x3972 (- (- (* (- _a_4_) l_1_1_6) (* _a_4_ l_1_1_9)) (* l_1_1_11 ?x3963))))
 (= ?x3972 0.0))))
(assert
 (let ((?x288 (* _a_7_ l_1_1_9)))
 (let ((?x306 (* _a_7_ l_1_1_6)))
 (= (- (- (* (* (* (- 2.0) _a_6_) _a_7_) l_1_1_11) ?x306) ?x288) 0.0))))
(assert
 (let ((?x1311 (* _a_9_ l_1_1_9)))
 (let ((?x2262 (* _a_9_ l_1_1_6)))
 (= (- (- (* (* (* (- 2.0) _a_6_) _a_9_) l_1_1_11) ?x2262) ?x1311) 0.0))))
(assert
 (>= l_1_1_1 0.0))
(assert
 (>= l_1_1_2 0.0))
(assert
 (>= l_1_1_3 0.0))
(assert
 (>= l_1_1_4 0.0))
(assert
 (>= l_1_1_5 0.0))
(assert
 (>= l_1_1_6 0.0))
(assert
 (>= l_1_1_7 0.0))
(assert
 (>= l_1_1_8 0.0))
(assert
 (>= l_1_1_9 0.0))
(assert
 (>= l_1_1_10 0.0))
(assert
 (>= l_1_1_11 0.0))
(assert
 (>= l_1_1_12 0.0))
(assert
 (>= l_1_1_13 0.0))
(assert
 (>= l_1_1_14 0.0))
(assert
 (>= l_1_1_15 0.0))
(assert
 (>= l_1_1_17 0.0))
(assert
 (>= l_1_1_20 0.0))
(assert
 (>= l_1_1_24 0.0))
(assert
 (let ((?x3307 (* 16.0 l_1_2_9)))
 (let ((?x2612 (* 16.0 l_1_2_6)))
 (let ((?x2600 (* l_1_2_15 l_1_2_15)))
 (let ((?x499 (* 16.0 l_1_2_12)))
 (let ((?x1676 (* 256.0 l_1_2_10)))
 (let ((?x1672 (* _a_0_ l_1_2_7)))
 (let ((?x1670 (* _a_0_ l_1_2_3)))
 (let ((?x1669 (+ (+ (* (- _a_0_) l_1_2_11) (* (* 16.0 _a_0_) l_1_2_13)) (* (* 16.0 _a_0_) l_1_2_2))))
 (let ((?x2599 (- (+ (- (- (+ (- (- ?x1669 ?x1670) ?x1672) _a_0_) l_1_2_1) ?x1676) ?x499) l_1_2_14)))
 (let ((?x2613 (+ (- (- (- ?x2599 ?x2600) (* (* l_1_2_4 _a_0_) _a_0_)) l_1_2_5) ?x2612)))
 (= (+ (- ?x2613 l_1_2_8) ?x3307) 0.0))))))))))))
(assert
 (= (- _a_1_ (* (* 2.0 l_1_2_15) l_1_2_25)) 0.0))
(assert
 (let ((?x2526 (* 6.0 l_1_2_9)))
 (let ((?x2517 (* 6.0 l_1_2_6)))
 (let ((?x1091 (* 6.0 l_1_2_12)))
 (let ((?x1118 (* 192.0 l_1_2_10)))
 (let ((?x3552 (* (/ 6.0 5.0) _a_5_)))
 (let ((?x3554 (* _a_5_ l_1_2_7)))
 (let ((?x4143 (* _a_5_ l_1_2_3)))
 (let ((?x4142 (* _a_5_ l_1_2_11)))
 (let ((?x4144 (- (+ (* (* (* (- 2.0) _a_0_) _a_5_) l_1_2_4) (* (/ 1.0 10.0) _a_2_)) ?x4142)))
 (let ((?x1094 (- (- (+ (+ (- (- ?x4144 ?x4143) ?x3554) ?x3552) ?x1118) ?x1091) (* l_1_2_13 (- (* 6.0 _a_0_) (* 16.0 _a_5_))))))
 (let ((?x2521 (- (- ?x1094 (* (* 2.0 l_1_2_15) l_1_2_16)) (* l_1_2_2 (- (* 6.0 _a_0_) (* 16.0 _a_5_))))))
 (= (- (- ?x2521 ?x2517) ?x2526) 0.0)))))))))))))
(assert
 (let ((?x2156 (* (/ 1.0 10.0) _a_5_)))
 (let ((?x2424 (* (/ 19.0 10.0) _a_2_)))
 (let ((?x2421 (* _a_2_ l_1_2_7)))
 (let ((?x2419 (* _a_2_ l_1_2_3)))
 (let ((?x2397 (* _a_2_ l_1_2_11)))
 (let ((?x2392 (+ (- (* (* (* (- 2.0) _a_0_) _a_2_) l_1_2_4) ?x2397) (* (* 16.0 _a_2_) l_1_2_13))))
 (let ((?x2425 (+ (- (- (+ ?x2392 (* (* 16.0 _a_2_) l_1_2_2)) ?x2419) ?x2421) ?x2424)))
 (= (- (+ ?x2425 ?x2156) (* (* 2.0 l_1_2_15) l_1_2_21)) 0.0)))))))))
(assert
 (let ((?x2526 (* 6.0 l_1_2_9)))
 (let ((?x2517 (* 6.0 l_1_2_6)))
 (let ((?x1091 (* 6.0 l_1_2_12)))
 (let ((?x1118 (* 192.0 l_1_2_10)))
 (let ((?x447 (* (/ 1.0 20.0) _a_2_)))
 (let ((?x4858 (* _a_1_ l_1_2_7)))
 (let ((?x138 (* _a_1_ l_1_2_3)))
 (let ((?x3781 (* _a_1_ l_1_2_11)))
 (let ((?x2597 (- (- (- (* (* (* (- 2.0) _a_0_) _a_1_) l_1_2_4) ?x3781) ?x138) ?x4858)))
 (let ((?x2379 (- (- (+ (+ ?x2597 ?x447) ?x1118) ?x1091) (* l_1_2_13 (- (* 6.0 _a_0_) (* 16.0 _a_1_))))))
 (let ((?x2384 (- (- ?x2379 (* (* 2.0 l_1_2_15) l_1_2_18)) (* l_1_2_2 (- (* 6.0 _a_0_) (* 16.0 _a_1_))))))
 (= (- (- ?x2384 ?x2517) ?x2526) 0.0)))))))))))))
(assert
 (let ((?x3528 (* 6.0 _a_5_)))
 (let ((?x1638 (+ (- (- _a_0_) (* 16.0 _a_3_)) ?x3528)))
 (let ((?x4476 (* l_1_2_17 l_1_2_17)))
 (let ((?x4474 (* l_1_2_16 l_1_2_16)))
 (let ((?x503 (* 68.0 l_1_2_10)))
 (let ((?x4853 (* (/ 1.0 100.0) _a_8_)))
 (let ((?x4850 (* (/ 3.0 25.0) _a_4_)))
 (let ((?x4847 (* (/ 36.0 25.0) _a_3_)))
 (let ((?x4119 (* _a_3_ l_1_2_7)))
 (let ((?x4848 (+ (- (- (* (- _a_3_) l_1_2_11) (* _a_3_ l_1_2_3)) ?x4119) ?x4847)))
 (let ((?x1634 (- (+ (- (+ (+ ?x4848 ?x4850) ?x4853) ?x503) l_1_2_12) (* l_1_2_13 ?x1638))))
 (let ((?x4473 (- (- (- (- ?x1634 ?x4474) ?x4476) (* l_1_2_2 ?x1638)) (* l_1_2_4 (+ (* (* 2.0 _a_0_) _a_3_) (* _a_5_ _a_5_))))))
 (= (+ (+ ?x4473 l_1_2_6) l_1_2_9) 0.0))))))))))))))
(assert
 (let ((?x22 (+ (* (* 2.0 _a_0_) _a_4_) (* (* 2.0 _a_2_) _a_5_))))
 (let ((?x3828 (* (/ 19.0 50.0) _a_8_)))
 (let ((?x3711 (* (/ 229.0 100.0) _a_4_)))
 (let ((?x3166 (* _a_4_ l_1_2_7)))
 (let ((?x3164 (* _a_4_ l_1_2_3)))
 (let ((?x3498 (+ (- (- (- (* (/ 6.0 25.0) _a_3_) (* _a_4_ l_1_2_11)) ?x3164) ?x3166) ?x3711)))
 (let ((?x1709 (- (+ ?x3498 ?x3828) (* l_1_2_13 (- (* 6.0 _a_2_) (* 16.0 _a_4_))))))
 (let ((?x1696 (- (- ?x1709 (* (* 2.0 l_1_2_16) l_1_2_21)) (* (* 2.0 l_1_2_17) l_1_2_22))))
 (let ((?x3605 (- (- ?x1696 (* l_1_2_2 (- (* 6.0 _a_2_) (* 16.0 _a_4_)))) (* l_1_2_4 ?x22))))
 (= ?x3605 0.0)))))))))))
(assert
 (let ((?x4613 (* l_1_2_24 l_1_2_24)))
 (let ((?x4611 (* l_1_2_23 l_1_2_23)))
 (let ((?x4609 (* l_1_2_22 l_1_2_22)))
 (let ((?x4607 (* l_1_2_21 l_1_2_21)))
 (let ((?x2939 (* 32.0 l_1_2_10)))
 (let ((?x2937 (* (/ 361.0 100.0) _a_8_)))
 (let ((?x3791 (* _a_8_ l_1_2_7)))
 (let ((?x231 (* _a_8_ l_1_2_3)))
 (let ((?x262 (- (- (+ (* (/ 1.0 100.0) _a_3_) (* (/ 19.0 100.0) _a_4_)) (* _a_8_ l_1_2_11)) ?x231)))
 (let ((?x2519 (- (+ (- (+ (- ?x262 ?x3791) ?x2937) ?x2939) l_1_2_12) (* l_1_2_13 (- (- _a_0_) (* 16.0 _a_8_))))))
 (let ((?x4610 (- (- (- ?x2519 (* l_1_2_2 (- (- _a_0_) (* 16.0 _a_8_)))) ?x4607) ?x4609)))
 (let ((?x1058 (- (- (- ?x4610 ?x4611) ?x4613) (* l_1_2_4 (+ (* (* 2.0 _a_0_) _a_8_) (* _a_2_ _a_2_))))))
 (= (+ (+ ?x1058 l_1_2_6) l_1_2_9) 0.0))))))))))))))
(assert
 (let ((?x1657 (+ (* (* 2.0 _a_0_) _a_9_) (* (* 2.0 _a_1_) _a_5_))))
 (let ((?x1561 (* 16.0 _a_9_)))
 (let ((?x3528 (* 6.0 _a_5_)))
 (let ((?x2964 (* 6.0 _a_1_)))
 (let ((?x1326 (+ ?x2964 ?x3528)))
 (let ((?x4335 (- ?x1326 ?x1561)))
 (let ((?x1331 (* 72.0 l_1_2_10)))
 (let ((?x3276 (* _a_9_ l_1_2_7)))
 (let ((?x3277 (* _a_9_ l_1_2_3)))
 (let ((?x3274 (- (- (+ (* (/ 3.0 50.0) _a_4_) (* (/ 1.0 100.0) _a_8_)) (* _a_9_ l_1_2_11)) ?x3277)))
 (let ((?x4631 (- (- (- (- ?x3274 ?x3276) ?x1331) (* l_1_2_13 ?x4335)) (* (* 2.0 l_1_2_16) l_1_2_18))))
 (let ((?x4633 (- (- (- ?x4631 (* (* 2.0 l_1_2_17) l_1_2_19)) (* l_1_2_2 ?x4335)) (* l_1_2_4 ?x1657))))
 (= ?x4633 0.0))))))))))))))
(assert
 (let ((?x485 (+ (* (* 2.0 _a_0_) _a_7_) (* (* 2.0 _a_1_) _a_2_))))
 (let ((?x2636 (* (/ 19.0 100.0) _a_8_)))
 (let ((?x1542 (* _a_7_ l_1_2_7)))
 (let ((?x4742 (* _a_7_ l_1_2_3)))
 (let ((?x2637 (+ (- (- (- (* (/ 1.0 200.0) _a_4_) (* _a_7_ l_1_2_11)) ?x4742) ?x1542) ?x2636)))
 (let ((?x1586 (- (- ?x2637 (* l_1_2_13 (- (* 6.0 _a_2_) (* 16.0 _a_7_)))) (* (* 2.0 l_1_2_18) l_1_2_21))))
 (let ((?x3973 (- (- ?x1586 (* (* 2.0 l_1_2_19) l_1_2_22)) (* l_1_2_2 (- (* 6.0 _a_2_) (* 16.0 _a_7_))))))
 (= (- (- ?x3973 (* (* 2.0 l_1_2_20) l_1_2_23)) (* l_1_2_4 ?x485)) 0.0)))))))))
(assert
 (let ((?x2737 (* l_1_2_29 l_1_2_29)))
 (let ((?x2740 (* l_1_2_28 l_1_2_28)))
 (let ((?x2735 (* l_1_2_27 l_1_2_27)))
 (let ((?x2739 (- (- (- _a_6_ (* l_1_2_25 l_1_2_25)) (* l_1_2_26 l_1_2_26)) ?x2735)))
 (= (- (- ?x2739 ?x2740) ?x2737) 0.0))))))
(assert
 (let ((?x455 (* (/ 6.0 5.0) _a_9_)))
 (let ((?x452 (* (/ 1.0 10.0) _a_7_)))
 (let ((?x2583 (+ ?x452 ?x455)))
 (let ((?x4977 (- (- ?x2583 (* (* 2.0 l_1_2_16) l_1_2_25)) (* (* 2.0 l_1_2_17) l_1_2_26))))
 (= ?x4977 0.0))))))
(assert
 (let ((?x2137 (* (/ 1.0 10.0) _a_9_)))
 (let ((?x4772 (* (/ 19.0 10.0) _a_7_)))
 (let ((?x2147 (+ ?x4772 ?x2137)))
 (let ((?x3712 (- (- ?x2147 (* (* 2.0 l_1_2_21) l_1_2_25)) (* (* 2.0 l_1_2_22) l_1_2_26))))
 (let ((?x1364 (- (- ?x3712 (* (* 2.0 l_1_2_23) l_1_2_27)) (* (* 2.0 l_1_2_24) l_1_2_28))))
 (= ?x1364 0.0)))))))
(assert
 (let ((?x4923 (- (- (* (/ 1.0 20.0) _a_7_) (* (* 2.0 l_1_2_18) l_1_2_25)) (* (* 2.0 l_1_2_19) l_1_2_26))))
 (= (- ?x4923 (* (* 2.0 l_1_2_20) l_1_2_27)) 0.0)))
(assert
 (let ((?x1841 (* l_1_2_20 l_1_2_20)))
 (let ((?x2966 (* 16.0 _a_6_)))
 (let ((?x3642 (- (+ (- _a_0_) (* 6.0 _a_1_)) ?x2966)))
 (let ((?x843 (* l_1_2_19 l_1_2_19)))
 (let ((?x449 (* l_1_2_18 l_1_2_18)))
 (let ((?x503 (* 68.0 l_1_2_10)))
 (let ((?x3202 (* (/ 1.0 400.0) _a_8_)))
 (let ((?x4480 (* _a_6_ l_1_2_7)))
 (let ((?x3203 (+ (- (- (* (- _a_6_) l_1_2_11) (* _a_6_ l_1_2_3)) ?x4480) ?x3202)))
 (let ((?x1370 (- (- (- (+ (- ?x3203 ?x503) l_1_2_12) (* l_1_2_13 ?x3642)) ?x449) ?x843)))
 (let ((?x1883 (- (- (- ?x1370 (* l_1_2_2 ?x3642)) ?x1841) (* l_1_2_4 (+ (* (* 2.0 _a_0_) _a_6_) (* _a_1_ _a_1_))))))
 (= (+ (+ ?x1883 l_1_2_6) l_1_2_9) 0.0)))))))))))))
(assert
 (let ((?x1148 (+ (* (* 2.0 _a_1_) _a_3_) (* (* 2.0 _a_5_) _a_9_))))
 (let ((?x2414 (* 6.0 _a_9_)))
 (let ((?x3497 (+ (+ (- _a_1_) (* 6.0 _a_3_)) ?x2414)))
 (let ((?x792 (- (- (- (* 12.0 l_1_2_10) (* l_1_2_13 ?x3497)) (* l_1_2_2 ?x3497)) (* l_1_2_4 ?x1148))))
 (= ?x792 0.0))))))
(assert
 (let ((?x1079 (+ (* (* 2.0 _a_1_) _a_8_) (* (* 2.0 _a_2_) _a_7_))))
 (let ((?x874 (* 12.0 l_1_2_10)))
 (let ((?x4539 (- (- ?x874 (* l_1_2_13 (+ (- _a_1_) (* 6.0 _a_8_)))) (* l_1_2_2 (+ (- _a_1_) (* 6.0 _a_8_))))))
 (= (- ?x4539 (* l_1_2_4 ?x1079)) 0.0)))))
(assert
 (let ((?x874 (* 12.0 l_1_2_10)))
 (let ((?x1523 (- (+ (* (* (* (- 2.0) _a_1_) _a_6_) l_1_2_4) ?x874) (* l_1_2_13 (+ (- _a_1_) (* 6.0 _a_6_))))))
 (= (- ?x1523 (* l_1_2_2 (+ (- _a_1_) (* 6.0 _a_6_)))) 0.0))))
(assert
 (let ((?x244 (+ (* (* 2.0 _a_2_) _a_3_) (* (* 2.0 _a_4_) _a_5_))))
 (let ((?x1239 (- (* (- l_1_2_13) (+ (- _a_2_) (* 6.0 _a_4_))) (* l_1_2_2 (+ (- _a_2_) (* 6.0 _a_4_))))))
 (= (- ?x1239 (* l_1_2_4 ?x244)) 0.0))))
(assert
 (let ((?x2124 (* _a_2_ l_1_2_2)))
 (let ((?x2122 (* _a_2_ l_1_2_13)))
 (= (+ (+ (* (* (* (- 2.0) _a_2_) _a_8_) l_1_2_4) ?x2122) ?x2124) 0.0))))
(assert
 (let ((?x4220 (+ (* (* 2.0 _a_1_) _a_7_) (* (* 2.0 _a_2_) _a_6_))))
 (let ((?x1693 (- (* (- l_1_2_13) (+ (- _a_2_) (* 6.0 _a_7_))) (* l_1_2_2 (+ (- _a_2_) (* 6.0 _a_7_))))))
 (= (- ?x1693 (* l_1_2_4 ?x4220)) 0.0))))
(assert
 (let ((?x3029 (- (- (+ (* _a_3_ l_1_2_13) (* _a_3_ l_1_2_2)) l_1_2_10) (* (* l_1_2_4 _a_3_) _a_3_))))
 (= ?x3029 0.0)))
(assert
 (let ((?x874 (* 12.0 l_1_2_10)))
 (let ((?x1400 (- (+ (* (* (* (- 2.0) _a_3_) _a_5_) l_1_2_4) ?x874) (* l_1_2_13 (- (* 6.0 _a_3_) _a_5_)))))
 (= (- ?x1400 (* l_1_2_2 (- (* 6.0 _a_3_) _a_5_))) 0.0))))
(assert
 (let ((?x661 (- (- (* (- 2.0) l_1_2_10) (* l_1_2_13 (- (- _a_3_) _a_8_))) (* l_1_2_2 (- (- _a_3_) _a_8_)))))
 (let ((?x3962 (- ?x661 (* l_1_2_4 (+ (* (* 2.0 _a_3_) _a_8_) (* _a_4_ _a_4_))))))
 (= ?x3962 0.0))))
(assert
 (let ((?x1844 (- (- (* (- 2.0) l_1_2_10) (* l_1_2_13 (- (- _a_3_) _a_6_))) (* l_1_2_2 (- (- _a_3_) _a_6_)))))
 (let ((?x1849 (- ?x1844 (* l_1_2_4 (+ (* (* 2.0 _a_3_) _a_6_) (* _a_9_ _a_9_))))))
 (= ?x1849 0.0))))
(assert
 (let ((?x4091 (* _a_4_ l_1_2_2)))
 (let ((?x222 (* _a_4_ l_1_2_13)))
 (= (+ (+ (* (* (* (- 2.0) _a_3_) _a_4_) l_1_2_4) ?x222) ?x4091) 0.0))))
(assert
 (let ((?x4091 (* _a_4_ l_1_2_2)))
 (let ((?x222 (* _a_4_ l_1_2_13)))
 (= (+ (+ (* (* (* (- 2.0) _a_4_) _a_8_) l_1_2_4) ?x222) ?x4091) 0.0))))
(assert
 (let ((?x3963 (+ (* (* 2.0 _a_4_) _a_6_) (* (* 2.0 _a_7_) _a_9_))))
 (let ((?x4091 (* _a_4_ l_1_2_2)))
 (let ((?x222 (* _a_4_ l_1_2_13)))
 (let ((?x4149 (+ ?x222 ?x4091)))
 (= (- ?x4149 (* l_1_2_4 ?x3963)) 0.0))))))
(assert
 (let ((?x3774 (+ (+ (* (* 2.0 _a_1_) _a_4_) (* (* 2.0 _a_2_) _a_9_)) (* (* 2.0 _a_5_) _a_7_))))
 (let ((?x2045 (- (* (- l_1_2_13) (+ (* 6.0 _a_4_) (* 6.0 _a_7_))) (* l_1_2_2 (+ (* 6.0 _a_4_) (* 6.0 _a_7_))))))
 (= (- ?x2045 (* l_1_2_4 ?x3774)) 0.0))))
(assert
 (let ((?x2097 (+ (* (* 2.0 _a_2_) _a_4_) (* (* 2.0 _a_5_) _a_8_))))
 (let ((?x874 (* 12.0 l_1_2_10)))
 (let ((?x1384 (- (- ?x874 (* l_1_2_13 (+ (- _a_5_) (* 6.0 _a_8_)))) (* l_1_2_2 (+ (- _a_5_) (* 6.0 _a_8_))))))
 (= (- ?x1384 (* l_1_2_4 ?x2097)) 0.0)))))
(assert
 (let ((?x1863 (+ (* (* 2.0 _a_1_) _a_9_) (* (* 2.0 _a_5_) _a_6_))))
 (let ((?x2414 (* 6.0 _a_9_)))
 (let ((?x355 (+ (+ (- _a_5_) (* 6.0 _a_6_)) ?x2414)))
 (let ((?x3661 (- (- (- (* 12.0 l_1_2_10) (* l_1_2_13 ?x355)) (* l_1_2_2 ?x355)) (* l_1_2_4 ?x1863))))
 (= ?x3661 0.0))))))
(assert
 (let ((?x4748 (- (- (* (- 2.0) l_1_2_10) (* l_1_2_13 (- (- _a_6_) _a_8_))) (* l_1_2_2 (- (- _a_6_) _a_8_)))))
 (let ((?x1222 (- ?x4748 (* l_1_2_4 (+ (* (* 2.0 _a_6_) _a_8_) (* _a_7_ _a_7_))))))
 (= ?x1222 0.0))))
(assert
 (let ((?x3462 (- (- (+ (* _a_6_ l_1_2_13) (* _a_6_ l_1_2_2)) l_1_2_10) (* (* l_1_2_4 _a_6_) _a_6_))))
 (= ?x3462 0.0)))
(assert
 (let ((?x3832 (+ (* (* 2.0 _a_3_) _a_7_) (* (* 2.0 _a_4_) _a_9_))))
 (let ((?x3292 (- (+ (* _a_7_ l_1_2_13) (* _a_7_ l_1_2_2)) (* l_1_2_4 ?x3832))))
 (= ?x3292 0.0))))
(assert
 (let ((?x3433 (* _a_7_ l_1_2_2)))
 (let ((?x4023 (* _a_7_ l_1_2_13)))
 (= (+ (+ (* (* (* (- 2.0) _a_7_) _a_8_) l_1_2_4) ?x4023) ?x3433) 0.0))))
(assert
 (let ((?x3433 (* _a_7_ l_1_2_2)))
 (let ((?x4023 (* _a_7_ l_1_2_13)))
 (= (+ (+ (* (* (* (- 2.0) _a_6_) _a_7_) l_1_2_4) ?x4023) ?x3433) 0.0))))
(assert
 (let ((?x490 (- (- (+ (* _a_8_ l_1_2_13) (* _a_8_ l_1_2_2)) l_1_2_10) (* (* l_1_2_4 _a_8_) _a_8_))))
 (= ?x490 0.0)))
(assert
 (let ((?x3480 (* _a_9_ l_1_2_2)))
 (let ((?x2221 (* _a_9_ l_1_2_13)))
 (= (+ (+ (* (* (* (- 2.0) _a_3_) _a_9_) l_1_2_4) ?x2221) ?x3480) 0.0))))
(assert
 (let ((?x1191 (+ (* (* 2.0 _a_4_) _a_7_) (* (* 2.0 _a_8_) _a_9_))))
 (let ((?x3480 (* _a_9_ l_1_2_2)))
 (let ((?x2221 (* _a_9_ l_1_2_13)))
 (let ((?x3327 (+ ?x2221 ?x3480)))
 (= (- ?x3327 (* l_1_2_4 ?x1191)) 0.0))))))
(assert
 (let ((?x3480 (* _a_9_ l_1_2_2)))
 (let ((?x2221 (* _a_9_ l_1_2_13)))
 (= (+ (+ (* (* (* (- 2.0) _a_6_) _a_9_) l_1_2_4) ?x2221) ?x3480) 0.0))))
(assert
 (>= l_1_2_1 0.0))
(assert
 (>= l_1_2_2 0.0))
(assert
 (>= l_1_2_3 0.0))
(assert
 (>= l_1_2_4 0.0))
(assert
 (>= l_1_2_5 0.0))
(assert
 (>= l_1_2_6 0.0))
(assert
 (>= l_1_2_7 0.0))
(assert
 (>= l_1_2_8 0.0))
(assert
 (>= l_1_2_9 0.0))
(assert
 (>= l_1_2_10 0.0))
(assert
 (>= l_1_2_11 0.0))
(assert
 (>= l_1_2_12 0.0))
(assert
 (>= l_1_2_13 0.0))
(assert
 (>= l_1_2_14 0.0))
(assert
 (>= l_1_2_15 0.0))
(assert
 (>= l_1_2_17 0.0))
(assert
 (>= l_1_2_20 0.0))
(assert
 (>= l_1_2_24 0.0))
(assert
 (>= l_1_2_29 0.0))
(check-sat)
(get-model)